Problem:    
Rows:       256
Columns:    89 (72 integer, 72 binary)
Non-zeros:  800
Status:     INTEGER OPTIMAL
Objective:  value = 75.524388 (MINimum)

   No.   Row name        Activity     Lower bound   Upper bound
------ ------------    ------------- ------------- -------------
     1 r.5                   1075.52             0               
     2 r.6                  -990.826      -991.291               
     3 r.7                   75.5244             0               
     4 r.8                   19.2011      -976.617               
     5 r.9                   1075.52             0               
     6 r.10                 -973.327      -990.759               
     7 r.11                  75.5244             0               
     8 r.12                  51.4794      -975.432               
     9 r.13                  1075.52             0               
    10 r.14                 -948.521      -983.634               
    11 r.15                  75.5244             0               
    12 r.16                  51.4794      -957.597               
    13 r.17                  1075.52             0               
    14 r.18                 -964.887      -991.559               
    15 r.19                  75.5244             0               
    16 r.20                 -977.503      -977.968               
    17 r.21                  1075.52             0               
    18 r.22                 -982.569      -991.743               
    19 r.23                  75.5244             0               
    20 r.24                  19.2011      -979.011               
    21 r.25                  1075.52             0               
    22 r.26                 -999.534      -999.534               
    23 r.27                  75.5244             0               
    24 r.28                   0.4657      -999.075               
    25 r.29                  75.5244             0               
    26 r.30                 -956.909       -976.11               
    27 r.31                  1075.52             0               
    28 r.32                 -924.476      -943.677               
    29 r.33                  1075.52             0               
    30 r.34                 -924.476      -975.955               
    31 r.35                  75.5244             0               
    32 r.36                  75.5244      -943.853               
    33 r.37                        1             1             = 
    34 r.38                        1             1             = 
    35 r.39                        1             1             = 
    36 r.40                        1             1             = 
    37 r.41                        1             1             = 
    38 r.42                        1             1             = 
    39 r.43                        1             1             = 
    40 r.44                        1             1             = 
    41 r.45                        2             2               
    42 r.46                       -2         -1001               
    43 r.47                 -982.502      -990.759               
    44 r.48                     1000             2               
    45 r.49                    -1000         -1001               
    46 r.50                  2032.28      -975.432               
    47 r.51                        2             2               
    48 r.52                       -2         -1001               
    49 r.53                 -957.695      -983.634               
    50 r.54                     1000             2               
    51 r.55                    -1000         -1001               
    52 r.56                  2032.28      -957.597               
    53 r.57                        2             2               
    54 r.58                       -2         -1001               
    55 r.59                 -974.061      -991.559               
    56 r.60                     1000             2               
    57 r.61                    -1000         -1001               
    58 r.62                   1003.3      -977.968               
    59 r.63                        2             2               
    60 r.64                       -2         -1001               
    61 r.65                 -991.743      -991.743               
    62 r.66                     1000             2               
    63 r.67                    -1000         -1001               
    64 r.68                     2000      -979.011               
    65 r.69                 -991.291      -991.291               
    66 r.70                  18.7354      -976.617               
    67 r.71                 -991.291      -991.291               
    68 r.72                  18.7354      -976.617               
    69 r.73                 -966.083       -976.11               
    70 r.74                  -933.65      -943.677               
    71 r.75                  -976.11       -976.11               
    72 r.76                 -943.677      -943.677               
    73 r.77                        2             2               
    74 r.78                       -2         -1001               
    75 r.79                  -933.65      -975.955               
    76 r.80                     1000             2               
    77 r.81                    -1000         -1001               
    78 r.82                  2056.32      -943.853               
    79 r.83                        2             2               
    80 r.84                       -2         -1001               
    81 r.85                  982.502       8.70854               
    82 r.86                     1000             2               
    83 r.87                    -1000         -1001               
    84 r.88                  1967.72       23.3827               
    85 r.89                        2             2               
    86 r.90                       -2         -1001               
    87 r.91                 -975.193      -983.634               
    88 r.92                     1000             2               
    89 r.93                    -1000         -1001               
    90 r.94                     2000      -957.597               
    91 r.95                        2             2               
    92 r.96                       -2         -1001               
    93 r.97                 -991.559      -991.559               
    94 r.98                     1000             2               
    95 r.99                    -1000         -1001               
    96 r.100                 971.018      -977.968               
    97 r.101                       2             2               
    98 r.102                      -2         -1001               
    99 r.103                 -9.2413      -991.743               
   100 r.104                    1000             2               
   101 r.105                   -1000         -1001               
   102 r.106                 1967.72      -979.011               
   103 r.107                -973.793      -990.759               
   104 r.108                 51.0137      -975.432               
   105 r.109                -973.793      -990.759               
   106 r.110                 51.0137      -975.432               
   107 r.111                    1001             2               
   108 r.112                   -1001         -1001               
   109 r.113                 1016.42       -976.11               
   110 r.114                    1001             2               
   111 r.115                   -1001         -1001               
   112 r.116                 2024.05      -943.677               
   113 r.117                -951.148      -975.955               
   114 r.118                 48.8518      -943.853               
   115 r.119                -975.955      -975.955               
   116 r.120                  24.045      -943.853               
   117 r.121                       2             2               
   118 r.122                      -2         -1001               
   119 r.123                 957.695       8.70854               
   120 r.124                    1000             2               
   121 r.125                   -1000         -1001               
   122 r.126                 1967.72       23.3827               
   123 r.127                       2             2               
   124 r.128                      -2         -1001               
   125 r.129                 975.193        9.2413               
   126 r.130                    1000             2               
   127 r.131                   -1000         -1001               
   128 r.132                    2000       24.5677               
   129 r.133                -983.634      -983.634               
   130 r.134                 16.3659      -957.597               
   131 r.135                 28.9819      -983.634               
   132 r.136                 1028.98      -957.597               
   133 r.137                       2             2               
   134 r.138                      -2         -1001               
   135 r.139                -34.0481      -991.743               
   136 r.140                    1000             2               
   137 r.141                   -1000         -1001               
   138 r.142                 1967.72      -979.011               
   139 r.143                -948.986      -983.634               
   140 r.144                 51.0137      -957.597               
   141 r.145                -948.986      -983.634               
   142 r.146                 51.0137      -957.597               
   143 r.147                    1001             2               
   144 r.148                   -1001         -1001               
   145 r.149                 991.612       -976.11               
   146 r.150                    1001             2               
   147 r.151                   -1001         -1001               
   148 r.152                 2024.05      -943.677               
   149 r.153                -975.955      -975.955               
   150 r.154                  24.045      -943.853               
   151 r.155                -975.955      -975.955               
   152 r.156                  24.045      -943.853               
   153 r.157                       2             2               
   154 r.158                      -2         -1001               
   155 r.159                 974.061       8.70854               
   156 r.160                    1000             2               
   157 r.161                   -1000         -1001               
   158 r.162                  2996.7       23.3827               
   159 r.163                       2             2               
   160 r.164                      -2         -1001               
   161 r.165                 991.559        9.2413               
   162 r.166                    1000             2               
   163 r.167                   -1000         -1001               
   164 r.168                 3028.98       24.5677               
   165 r.169                       2             2               
   166 r.170                      -2         -1001               
   167 r.171                -17.6822      -991.743               
   168 r.172                    1000             2               
   169 r.173                   -1000         -1001               
   170 r.174                  2996.7      -979.011               
   171 r.175                -965.352      -991.559               
   172 r.176                -977.968      -977.968               
   173 r.177                -965.352      -991.559               
   174 r.178                -977.968      -977.968               
   175 r.179                    1001             2               
   176 r.180                   -1001         -1001               
   177 r.181                 1007.98       -976.11               
   178 r.182                    1001             2               
   179 r.183                   -1001         -1001               
   180 r.184                 3053.03      -943.677               
   181 r.185                -959.589      -975.955               
   182 r.186                 40.4109      -943.853               
   183 r.187                 53.0269      -975.955               
   184 r.188                 1053.03      -943.853               
   185 r.189                       2             2               
   186 r.190                      -2         -1001               
   187 r.191                 991.743       8.70854               
   188 r.192                    1000             2               
   189 r.193                   -1000         -1001               
   190 r.194                    2000       23.3827               
   191 r.195                       2             2               
   192 r.196                      -2         -1001               
   193 r.197                  9.2413        9.2413               
   194 r.198                    1000             2               
   195 r.199                   -1000         -1001               
   196 r.200                 2032.28       24.5677               
   197 r.201                       2             2               
   198 r.202                      -2         -1001               
   199 r.203                 34.0481       16.3659               
   200 r.204                    1000             2               
   201 r.205                   -1000         -1001               
   202 r.206                 2032.28       42.4031               
   203 r.207                       2             2               
   204 r.208                      -2         -1001               
   205 r.209                 17.6822        8.4409               
   206 r.210                    1000             2               
   207 r.211                   -1000         -1001               
   208 r.212                  1003.3       22.0318               
   209 r.213                -983.034      -991.743               
   210 r.214                 18.7354      -979.011               
   211 r.215                -983.034      -991.743               
   212 r.216                 18.7354      -979.011               
   213 r.217                 -974.34       -976.11               
   214 r.218                -941.907      -943.677               
   215 r.219                 -976.11       -976.11               
   216 r.220                -943.677      -943.677               
   217 r.221                -941.907      -975.955               
   218 r.222                 58.0931      -943.853               
   219 r.223                -943.677      -975.955               
   220 r.224                 56.3233      -943.853               
   221 r.225                    1001             2               
   222 r.226                   -1001         -1001               
   223 r.227                 2983.58        9.2413               
   224 r.228                    1001             2               
   225 r.229                   -1001         -1001               
   226 r.230                 1975.95       24.5677               
   227 r.231                    1001             2               
   228 r.232                   -1001         -1001               
   229 r.233                 3008.39       16.3659               
   230 r.234                    1001             2               
   231 r.235                   -1001         -1001               
   232 r.236                 1975.95       42.4031               
   233 r.237                    1001             2               
   234 r.238                   -1001         -1001               
   235 r.239                 2992.02        8.4409               
   236 r.240                    1001             2               
   237 r.241                   -1001         -1001               
   238 r.242                 946.973       22.0318               
   239 r.243                    1001             2               
   240 r.244                   -1001         -1001               
   241 r.245                 3032.43      -975.955               
   242 r.246                    1001             2               
   243 r.247                   -1001         -1001               
   244 r.248                    2000      -943.853               
   245 r.249                       2             2               
   246 r.250                      -2         -1001               
   247 r.251                  933.65       8.70854               
   248 r.252                    1000             2               
   249 r.253                   -1000         -1001               
   250 r.254                 1943.68       23.3827               
   251 r.255                    1001             2               
   252 r.256                   -1001         -1001               
   253 r.257                 967.567       23.8899               
   254 r.258                    1001             2               
   255 r.259                   -1001         -1001               
   256 r.260                    2000       56.3233               

   No. Column name       Activity     Lower bound   Upper bound
------ ------------    ------------- ------------- -------------
     1 tt                    75.5244             0               
     2 s_1_1        *              1             0             1 
     3 t_1_1                 66.3501             0               
     4 s_1_7        *              0             0             1 
     5 s_2_1        *              0             0             1 
     6 t_2_1                 56.3233             0               
     7 s_2_7        *              1             0             1 
     8 s_1_2        *              1             0             1 
     9 t_1_2                 48.8518             0               
    10 s_1_8        *              1             0             1 
    11 s_2_2        *              0             0             1 
    12 t_2_2                  24.045             0               
    13 s_2_8        *              0             0             1 
    14 s_1_3        *              1             0             1 
    15 t_1_3                  24.045             0               
    16 s_2_3        *              0             0             1 
    17 t_2_3                  24.045             0               
    18 s_1_4        *              1             0             1 
    19 t_1_4                 40.4109             0               
    20 s_2_4        *              0             0             1 
    21 t_2_4                 1053.03             0               
    22 s_1_5        *              1             0             1 
    23 t_1_5                 58.0931             0               
    24 s_2_5        *              0             0             1 
    25 t_2_5                 56.3233             0               
    26 s_1_6        *              1             0             1 
    27 t_1_6                 75.0587             0               
    28 s_2_6        *              0             0             1 
    29 t_2_6                 75.0587             0               
    30 t_1_7                 1032.43             0               
    31 t_2_7                       0             0               
    32 t_1_8                       0             0               
    33 t_2_8                       0             0               
    34 r_1_1_2      *              0             0             1 
    35 u_1_1_2      *              1             0             1 
    36 r_2_1_2      *              1             0             1 
    37 u_2_1_2      *              0             0             1 
    38 r_1_1_3      *              0             0             1 
    39 u_1_1_3      *              1             0             1 
    40 r_2_1_3      *              1             0             1 
    41 u_2_1_3      *              0             0             1 
    42 r_1_1_4      *              0             0             1 
    43 u_1_1_4      *              1             0             1 
    44 r_2_1_4      *              1             0             1 
    45 u_2_1_4      *              0             0             1 
    46 r_1_1_5      *              0             0             1 
    47 u_1_1_5      *              1             0             1 
    48 r_2_1_5      *              1             0             1 
    49 u_2_1_5      *              0             0             1 
    50 r_1_1_8      *              0             0             1 
    51 u_1_1_8      *              1             0             1 
    52 r_2_1_8      *              1             0             1 
    53 u_2_1_8      *              0             0             1 
    54 r_1_2_3      *              0             0             1 
    55 u_1_2_3      *              1             0             1 
    56 r_2_2_3      *              1             0             1 
    57 u_2_2_3      *              0             0             1 
    58 r_1_2_4      *              0             0             1 
    59 u_1_2_4      *              1             0             1 
    60 r_2_2_4      *              1             0             1 
    61 u_2_2_4      *              0             0             1 
    62 r_1_2_5      *              0             0             1 
    63 u_1_2_5      *              0             0             1 
    64 r_2_2_5      *              1             0             1 
    65 u_2_2_5      *              0             0             1 
    66 r_1_2_7      *              1             0             1 
    67 u_1_2_7      *              0             0             1 
    68 r_2_2_7      *              1             0             1 
    69 u_2_2_7      *              0             0             1 
    70 r_1_3_5      *              0             0             1 
    71 u_1_3_5      *              0             0             1 
    72 r_2_3_5      *              1             0             1 
    73 u_2_3_5      *              0             0             1 
    74 r_1_3_7      *              1             0             1 
    75 u_1_3_7      *              0             0             1 
    76 r_2_3_7      *              1             0             1 
    77 u_2_3_7      *              0             0             1 
    78 r_1_4_5      *              0             0             1 
    79 u_1_4_5      *              0             0             1 
    80 r_2_4_5      *              1             0             1 
    81 u_2_4_5      *              0             0             1 
    82 r_1_4_7      *              1             0             1 
    83 u_1_4_7      *              0             0             1 
    84 r_2_4_7      *              1             0             1 
    85 u_2_4_7      *              0             0             1 
    86 r_1_7_8      *              1             0             1 
    87 u_1_7_8      *              0             0             1 
    88 r_2_7_8      *              1             0             1 
    89 u_2_7_8      *              0             0             1 

Integer feasibility conditions:

KKT.PE: max.abs.err = 0.00e+00 on row 0
        max.rel.err = 0.00e+00 on row 0
        High quality

KKT.PB: max.abs.err = 2.27e-13 on row 93
        max.rel.err = 2.29e-16 on row 93
        High quality

End of output
